Running for instance ./models/rc203.txt
Generating routes...
Execution time:  0.112158  minutes
Academic license - for non-commercial use only
Warning: constraint name "Cliente esta na rota" has a space
Optimize a model with 26 rows, 5000 columns and 49901 nonzeros
Variable types: 0 continuous, 5000 integer (0 binary)
Coefficient statistics:
  Matrix range     [1e+00, 1e+00]
  Objective range  [8e+01, 5e+02]
  Bounds range     [1e+00, 1e+00]
  RHS range        [1e+00, 2e+01]
Found heuristic solution: objective 1225.1426412
Presolve removed 0 rows and 1160 columns
Presolve time: 0.04s
Presolved: 26 rows, 3840 columns, 38617 nonzeros
Variable types: 0 continuous, 3840 integer (3840 binary)

Root relaxation: objective 4.201692e+02, 49 iterations, 0.00 seconds

    Nodes    |    Current Node    |     Objective Bounds      |     Work
 Expl Unexpl |  Obj  Depth IntInf | Incumbent    BestBd   Gap | It/Node Time

     0     0  420.16918    0    5 1225.14264  420.16918  65.7%     -    0s
H    0     0                     554.6253745  420.16918  24.2%     -    0s
H    0     0                     485.5509266  420.16918  13.5%     -    0s
H    0     0                     467.4240571  420.16918  10.1%     -    0s
H    0     0                     424.0197984  420.16918  0.91%     -    0s
     0     0 infeasible    0       424.01980  424.01980  0.00%     -    0s

Cutting planes:
  Zero half: 2

Explored 1 nodes (51 simplex iterations) in 0.07 seconds
Thread count was 8 (of 8 available processors)

Solution count 5: 424.02 467.424 485.551 ... 1225.14

Optimal solution found (tolerance 1.00e-04)
Best objective 4.240197983523e+02, best bound 4.240197983523e+02, gap 0.0000%
15 6 8
20 23 22 24 25 21 18
11 9 10 13 14 16 12 17 7 5 3 1
Distance: 424.019798352
Execution time:  0.119017116667  minutes
